

******************************************************************************
This program contains Ipopt, a library for large-scale nonlinear optimization.
 Ipopt is released as open source code under the Eclipse Public License (EPL).
         For more information visit https://github.com/coin-or/Ipopt
******************************************************************************

This is Ipopt version 3.14.11, running with linear solver MUMPS 5.5.1.

Number of nonzeros in equality constraint Jacobian...:        0
Number of nonzeros in inequality constraint Jacobian.:        0
Number of nonzeros in Lagrangian Hessian.............:        6

Total number of variables............................:        3
                     variables with only lower bounds:        0
                variables with lower and upper bounds:        0
                     variables with only upper bounds:        0
Total number of equality constraints.................:        0
Total number of inequality constraints...............:        0
        inequality constraints with only lower bounds:        0
   inequality constraints with lower and upper bounds:        0
        inequality constraints with only upper bounds:        0

iter    objective    inf_pr   inf_du lg(mu)  ||d||  lg(rg) alpha_du alpha_pr  ls
   0  1.6936078e+09 0.00e+00 8.73e+02  -1.0 0.00e+00    -  0.00e+00 0.00e+00   0
   1  3.5482301e+07 0.00e+00 1.17e+02  -1.0 1.44e+00   0.0 1.00e+00 1.00e+00f  1
   2  8.5846862e+06 0.00e+00 3.50e-01  -1.0 3.50e-02  -0.5 1.00e+00 1.00e+00f  1
   3  8.4678702e+06 0.00e+00 1.39e-02  -1.7 1.02e-01  -1.0 1.00e+00 1.00e+00f  1
   4  8.1306565e+06 0.00e+00 9.24e-02  -3.8 3.00e-01  -1.4 1.00e+00 1.00e+00f  1
   5  7.2231089e+06 0.00e+00 6.93e-01  -3.8 8.43e-01  -1.9 1.00e+00 1.00e+00f  1
   6  2.8039880e+05 0.00e+00 5.06e+00  -3.8 2.66e+02    -  1.00e+00 1.00e+00f  1
   7  1.7845322e+05 0.00e+00 4.87e-02  -3.8 2.88e-01  -2.4 1.00e+00 1.00e+00f  1
   8  1.2559463e+05 0.00e+00 2.21e-01  -3.8 5.60e-01  -2.9 1.00e+00 1.00e+00f  1
   9  7.7790308e+04 0.00e+00 1.43e+00  -3.8 5.97e+01    -  1.00e+00 1.00e+00f  1
iter    objective    inf_pr   inf_du lg(mu)  ||d||  lg(rg) alpha_du alpha_pr  ls
  10  7.1924120e+04 0.00e+00 2.07e-02  -3.8 5.72e+00    -  1.00e+00 1.00e+00f  1
  11  7.0739082e+04 0.00e+00 3.55e-01  -3.8 2.37e+02    -  1.00e+00 6.25e-02f  5
  12  6.9242475e+04 0.00e+00 5.45e-01  -3.8 1.89e+01    -  1.00e+00 1.00e+00f  1
  13  6.7443999e+04 0.00e+00 2.36e-01  -3.8 1.27e+01    -  1.00e+00 1.00e+00f  1
  14  6.6368434e+04 0.00e+00 4.42e-01  -3.8 2.85e+01    -  1.00e+00 5.00e-01f  2
  15  6.4772034e+04 0.00e+00 3.89e-01  -3.8 1.57e+01    -  1.00e+00 1.00e+00f  1
  16  6.3330541e+04 0.00e+00 5.25e-01  -3.8 1.80e+01    -  1.00e+00 1.00e+00f  1
  17  6.1716833e+04 0.00e+00 2.96e-01  -3.8 1.36e+01    -  1.00e+00 1.00e+00f  1
  18  6.1107809e+04 0.00e+00 9.80e-01  -3.8 2.37e+01    -  1.00e+00 1.00e+00f  1
  19  5.8757637e+04 0.00e+00 8.48e-02  -3.8 7.76e+00    -  1.00e+00 1.00e+00f  1
iter    objective    inf_pr   inf_du lg(mu)  ||d||  lg(rg) alpha_du alpha_pr  ls
  20  5.7991554e+04 0.00e+00 7.64e-01  -3.8 7.84e+01    -  1.00e+00 2.50e-01f  3
  21  5.6242009e+04 0.00e+00 1.57e-01  -3.8 9.88e+00    -  1.00e+00 1.00e+00f  1
  22  5.5900802e+04 0.00e+00 1.03e+00  -3.8 4.50e+01    -  1.00e+00 5.00e-01f  2
  23  5.3702257e+04 0.00e+00 8.73e-02  -3.8 7.60e+00    -  1.00e+00 1.00e+00f  1
  24  5.3018277e+04 0.00e+00 8.22e-01  -3.8 7.87e+01    -  1.00e+00 2.50e-01f  3
  25  5.1365138e+04 0.00e+00 1.55e-01  -3.8 9.50e+00    -  1.00e+00 1.00e+00f  1
  26  5.1278472e+04 0.00e+00 1.20e+00  -3.8 4.70e+01    -  1.00e+00 5.00e-01f  2
  27  4.8967323e+04 0.00e+00 7.25e-02  -3.8 6.86e+00    -  1.00e+00 1.00e+00f  1
  28  4.8964662e+04 0.00e+00 1.26e+00  -3.8 9.55e+01    -  1.00e+00 2.50e-01f  3
  29  4.6659296e+04 0.00e+00 6.95e-02  -3.8 6.65e+00    -  1.00e+00 1.00e+00f  1
iter    objective    inf_pr   inf_du lg(mu)  ||d||  lg(rg) alpha_du alpha_pr  ls
  30  4.5899597e+04 0.00e+00 3.97e-01  -3.8 1.00e+02    -  1.00e+00 1.25e-01f  4
  31  4.5020689e+04 0.00e+00 8.40e-01  -3.8 1.98e+01    -  1.00e+00 1.00e+00f  1
  32  4.3634549e+04 0.00e+00 1.87e-01  -3.8 9.75e+00    -  1.00e+00 1.00e+00f  1
  33  4.3211597e+04 0.00e+00 1.06e+00  -3.8 4.12e+01    -  1.00e+00 5.00e-01f  2
  34  4.1620254e+04 0.00e+00 1.22e-01  -3.8 7.99e+00    -  1.00e+00 1.00e+00f  1
  35  4.0928818e+04 0.00e+00 6.52e-01  -3.8 6.21e+01    -  1.00e+00 2.50e-01f  3
  36  3.9811996e+04 0.00e+00 3.57e-01  -3.8 1.27e+01    -  1.00e+00 1.00e+00f  1
  37  3.9460435e+04 0.00e+00 1.25e+00  -3.8 2.28e+01    -  1.00e+00 1.00e+00f  1
  38  3.7764423e+04 0.00e+00 9.62e-02  -3.8 7.02e+00    -  1.00e+00 1.00e+00f  1
  39  3.7332527e+04 0.00e+00 1.05e+00  -3.8 7.90e+01    -  1.00e+00 2.50e-01f  3
iter    objective    inf_pr   inf_du lg(mu)  ||d||  lg(rg) alpha_du alpha_pr  ls
  40  3.6003974e+04 0.00e+00 1.48e-01  -3.8 8.28e+00    -  1.00e+00 1.00e+00f  1
  41  3.5391601e+04 0.00e+00 5.70e-01  -3.8 5.36e+01    -  1.00e+00 2.50e-01f  3
  42  3.4468957e+04 0.00e+00 5.57e-01  -3.8 1.49e+01    -  1.00e+00 1.00e+00f  1
  43  3.3581380e+04 0.00e+00 6.02e-01  -3.8 1.53e+01    -  1.00e+00 1.00e+00f  1
  44  3.2684370e+04 0.00e+00 5.30e-01  -3.8 1.43e+01    -  1.00e+00 1.00e+00f  1
  45  3.1872832e+04 0.00e+00 7.06e-01  -3.8 1.63e+01    -  1.00e+00 1.00e+00f  1
  46  3.0969568e+04 0.00e+00 4.05e-01  -3.8 1.24e+01    -  1.00e+00 1.00e+00f  1
  47  3.0588689e+04 0.00e+00 1.28e+00  -3.8 2.13e+01    -  1.00e+00 1.00e+00f  1
  48  2.9316679e+04 0.00e+00 1.23e-01  -3.8 7.19e+00    -  1.00e+00 1.00e+00f  1
  49  2.8832566e+04 0.00e+00 8.93e-01  -3.8 6.61e+01    -  1.00e+00 2.50e-01f  3
iter    objective    inf_pr   inf_du lg(mu)  ||d||  lg(rg) alpha_du alpha_pr  ls
  50  2.7930898e+04 0.00e+00 2.77e-01  -3.8 1.01e+01    -  1.00e+00 1.00e+00f  1
  51  2.7443690e+04 0.00e+00 8.66e-01  -3.8 3.12e+01    -  1.00e+00 5.00e-01f  2
  52  2.6596091e+04 0.00e+00 3.10e-01  -3.8 1.05e+01    -  1.00e+00 1.00e+00f  1
  53  2.6106099e+04 0.00e+00 7.67e-01  -3.8 2.82e+01    -  1.00e+00 5.00e-01f  2
  54  2.5333351e+04 0.00e+00 4.16e-01  -3.8 1.18e+01    -  1.00e+00 1.00e+00f  1
  55  2.5098921e+04 0.00e+00 1.46e+00  -3.8 2.14e+01    -  1.00e+00 1.00e+00f  1
  56  2.3918761e+04 0.00e+00 1.11e-01  -3.8 6.51e+00    -  1.00e+00 1.00e+00f  1
  57  2.3621524e+04 0.00e+00 1.22e+00  -3.8 7.41e+01    -  1.00e+00 2.50e-01f  3
  58  2.2705121e+04 0.00e+00 1.72e-01  -3.8 7.71e+00    -  1.00e+00 1.00e+00f  1
  59  2.2283618e+04 0.00e+00 6.57e-01  -3.8 5.00e+01    -  1.00e+00 2.50e-01f  3
iter    objective    inf_pr   inf_du lg(mu)  ||d||  lg(rg) alpha_du alpha_pr  ls
  60  2.1651201e+04 0.00e+00 6.49e-01  -3.8 1.40e+01    -  1.00e+00 1.00e+00f  1
  61  2.1038834e+04 0.00e+00 6.79e-01  -3.8 1.42e+01    -  1.00e+00 1.00e+00f  1
  62  2.0429460e+04 0.00e+00 6.34e-01  -3.8 1.36e+01    -  1.00e+00 1.00e+00f  1
  63  1.9857385e+04 0.00e+00 7.44e-01  -3.8 1.46e+01    -  1.00e+00 1.00e+00f  1
  64  1.9257581e+04 0.00e+00 5.49e-01  -3.8 1.25e+01    -  1.00e+00 1.00e+00f  1
  65  1.8792568e+04 0.00e+00 1.03e+00  -3.8 1.68e+01    -  1.00e+00 1.00e+00f  1
  66  1.8142883e+04 0.00e+00 2.93e-01  -3.8 9.20e+00    -  1.00e+00 1.00e+00f  1
  67  1.7815779e+04 0.00e+00 1.06e+00  -3.8 3.09e+01    -  1.00e+00 5.00e-01f  2
  68  1.7189124e+04 0.00e+00 2.89e-01  -3.8 9.03e+00    -  1.00e+00 1.00e+00f  1
  69  1.6884668e+04 0.00e+00 1.10e+00  -3.8 3.13e+01    -  1.00e+00 5.00e-01f  2
iter    objective    inf_pr   inf_du lg(mu)  ||d||  lg(rg) alpha_du alpha_pr  ls
  70  1.6271743e+04 0.00e+00 2.72e-01  -3.8 8.67e+00    -  1.00e+00 1.00e+00f  1
  71  1.6017699e+04 0.00e+00 1.25e+00  -3.8 3.32e+01    -  1.00e+00 5.00e-01f  2
  72  1.5381430e+04 0.00e+00 2.17e-01  -3.8 7.73e+00    -  1.00e+00 1.00e+00f  1
  73  1.5087305e+04 0.00e+00 5.96e-01  -3.8 4.11e+01    -  1.00e+00 2.50e-01f  3
  74  1.4684607e+04 0.00e+00 1.01e+00  -3.8 1.57e+01    -  1.00e+00 1.00e+00f  1
  75  1.4166562e+04 0.00e+00 3.51e-01  -3.8 9.43e+00    -  1.00e+00 1.00e+00f  1
  76  1.3869824e+04 0.00e+00 9.02e-01  -3.8 2.61e+01    -  1.00e+00 5.00e-01f  2
  77  1.3397997e+04 0.00e+00 4.57e-01  -3.8 1.05e+01    -  1.00e+00 1.00e+00f  1
  78  1.3326612e+04 0.00e+00 1.81e+00  -3.8 2.03e+01    -  1.00e+00 1.00e+00f  1
  79  1.2534497e+04 0.00e+00 1.07e-01  -3.8 5.46e+00    -  1.00e+00 1.00e+00f  1
iter    objective    inf_pr   inf_du lg(mu)  ||d||  lg(rg) alpha_du alpha_pr  ls
  80  1.2512108e+04 0.00e+00 1.81e+00  -3.8 7.76e+01    -  1.00e+00 2.50e-01f  3
  81  1.1768860e+04 0.00e+00 1.11e-01  -3.8 5.47e+00    -  1.00e+00 1.00e+00f  1
  82  1.1712843e+04 0.00e+00 1.74e+00  -3.8 7.50e+01    -  1.00e+00 2.50e-01f  3
  83  1.1046656e+04 0.00e+00 1.24e-01  -3.8 5.64e+00    -  1.00e+00 1.00e+00f  1
  84  1.0900743e+04 0.00e+00 1.47e+00  -3.8 6.77e+01    -  1.00e+00 2.50e-01f  3
  85  1.0379943e+04 0.00e+00 1.82e-01  -3.8 6.54e+00    -  1.00e+00 1.00e+00f  1
  86  1.0148324e+04 0.00e+00 8.36e-01  -3.8 4.79e+01    -  1.00e+00 2.50e-01f  3
  87  9.7913004e+03 0.00e+00 5.96e-01  -3.8 1.12e+01    -  1.00e+00 1.00e+00f  1
  88  9.5256702e+03 0.00e+00 1.19e+00  -3.8 1.55e+01    -  1.00e+00 1.00e+00f  1
  89  9.1333586e+03 0.00e+00 2.97e-01  -3.8 7.95e+00    -  1.00e+00 1.00e+00f  1
iter    objective    inf_pr   inf_du lg(mu)  ||d||  lg(rg) alpha_du alpha_pr  ls
  90  8.9637367e+03 0.00e+00 1.31e+00  -3.8 3.00e+01    -  1.00e+00 5.00e-01f  2
  91  8.5655363e+03 0.00e+00 2.47e-01  -3.8 7.22e+00    -  1.00e+00 1.00e+00f  1
  92  8.5208227e+03 0.00e+00 1.79e+00  -3.8 3.54e+01    -  1.00e+00 5.00e-01f  2
  93  7.9972594e+03 0.00e+00 1.27e-01  -3.8 5.34e+00    -  1.00e+00 1.00e+00f  1
  94  7.8798120e+03 0.00e+00 1.50e+00  -3.8 6.41e+01    -  1.00e+00 2.50e-01f  3
  95  7.4770745e+03 0.00e+00 1.90e-01  -3.8 6.26e+00    -  1.00e+00 1.00e+00f  1
  96  7.2965578e+03 0.00e+00 8.22e-01  -3.8 4.44e+01    -  1.00e+00 2.50e-01f  3
  97  7.0224626e+03 0.00e+00 6.55e-01  -3.8 1.10e+01    -  1.00e+00 1.00e+00f  1
  98  6.7919362e+03 0.00e+00 1.04e+00  -3.8 1.36e+01    -  1.00e+00 1.00e+00f  1
  99  6.5106344e+03 0.00e+00 4.13e-01  -3.8 8.72e+00    -  1.00e+00 1.00e+00f  1
iter    objective    inf_pr   inf_du lg(mu)  ||d||  lg(rg) alpha_du alpha_pr  ls
 100  6.3442428e+03 0.00e+00 8.42e-01  -3.8 2.10e+01    -  1.00e+00 5.00e-01f  2
 101  6.0957845e+03 0.00e+00 6.30e-01  -3.8 1.05e+01    -  1.00e+00 1.00e+00f  1
 102  5.8989950e+03 0.00e+00 1.12e+00  -3.8 1.39e+01    -  1.00e+00 1.00e+00f  1
 103  5.6366483e+03 0.00e+00 3.50e-01  -3.8 7.88e+00    -  1.00e+00 1.00e+00f  1
 104  5.4934362e+03 0.00e+00 1.05e+00  -3.8 2.40e+01    -  1.00e+00 5.00e-01f  2
 105  5.2524681e+03 0.00e+00 4.03e-01  -3.8 8.32e+00    -  1.00e+00 1.00e+00f  1
 106  5.1108421e+03 0.00e+00 8.65e-01  -3.8 2.08e+01    -  1.00e+00 5.00e-01f  2
 107  4.8975186e+03 0.00e+00 5.93e-01  -3.8 9.90e+00    -  1.00e+00 1.00e+00f  1
 108  4.7466039e+03 0.00e+00 1.26e+00  -3.8 1.41e+01    -  1.00e+00 1.00e+00f  1
 109  4.5084028e+03 0.00e+00 2.75e-01  -3.8 6.81e+00    -  1.00e+00 1.00e+00f  1
iter    objective    inf_pr   inf_du lg(mu)  ||d||  lg(rg) alpha_du alpha_pr  ls
 110  4.4306341e+03 0.00e+00 1.50e+00  -3.8 2.89e+01    -  1.00e+00 5.00e-01f  2
 111  4.1693275e+03 0.00e+00 1.89e-01  -3.8 5.68e+00    -  1.00e+00 1.00e+00f  1
 112  4.0526318e+03 0.00e+00 8.03e-01  -3.8 4.00e+01    -  1.00e+00 2.50e-01f  3
 113  3.8773430e+03 0.00e+00 6.68e-01  -3.8 1.01e+01    -  1.00e+00 1.00e+00f  1
 114  3.7247920e+03 0.00e+00 9.58e-01  -3.8 1.20e+01    -  1.00e+00 1.00e+00f  1
 115  3.5497174e+03 0.00e+00 4.61e-01  -3.8 8.39e+00    -  1.00e+00 1.00e+00f  1
 116  3.5404204e+03 0.00e+00 1.96e+00  -3.8 1.68e+01    -  1.00e+00 1.00e+00f  1
 117  3.2325493e+03 0.00e+00 1.01e-01  -3.8 4.17e+00    -  1.00e+00 1.00e+00f  1
 118  3.1379759e+03 0.00e+00 5.51e-01  -3.8 6.49e+01    -  1.00e+00 1.25e-01f  4
 119  3.0410621e+03 0.00e+00 1.33e+00  -3.8 1.37e+01    -  1.00e+00 1.00e+00f  1
iter    objective    inf_pr   inf_du lg(mu)  ||d||  lg(rg) alpha_du alpha_pr  ls
 120  2.8588167e+03 0.00e+00 2.22e-01  -3.8 5.80e+00    -  1.00e+00 1.00e+00f  1
 121  2.7758624e+03 0.00e+00 6.15e-01  -3.8 3.15e+01    -  1.00e+00 2.50e-01f  3
 122  2.6636939e+03 0.00e+00 1.04e+00  -3.8 1.20e+01    -  1.00e+00 1.00e+00f  1
 123  2.5213719e+03 0.00e+00 3.58e-01  -3.8 7.14e+00    -  1.00e+00 1.00e+00f  1
 124  2.4399005e+03 0.00e+00 8.87e-01  -3.8 1.95e+01    -  1.00e+00 5.00e-01f  2
 125  2.3138290e+03 0.00e+00 4.77e-01  -3.8 8.10e+00    -  1.00e+00 1.00e+00f  1
 126  2.2701939e+03 0.00e+00 1.60e+00  -3.8 1.45e+01    -  1.00e+00 1.00e+00f  1
 127  2.0883140e+03 0.00e+00 1.35e-01  -3.8 4.46e+00    -  1.00e+00 1.00e+00f  1
 128  2.0244302e+03 0.00e+00 1.07e+00  -3.8 4.47e+01    -  1.00e+00 2.50e-01f  3
 129  1.9044432e+03 0.00e+00 3.00e-01  -3.8 6.36e+00    -  1.00e+00 1.00e+00f  1
iter    objective    inf_pr   inf_du lg(mu)  ||d||  lg(rg) alpha_du alpha_pr  ls
 130  1.8431433e+03 0.00e+00 1.04e+00  -3.8 2.12e+01    -  1.00e+00 5.00e-01f  2
 131  1.7325580e+03 0.00e+00 3.09e-01  -3.8 6.39e+00    -  1.00e+00 1.00e+00f  1
 132  1.6733163e+03 0.00e+00 9.57e-01  -3.8 2.00e+01    -  1.00e+00 5.00e-01f  2
 133  1.5735741e+03 0.00e+00 3.47e-01  -3.8 6.68e+00    -  1.00e+00 1.00e+00f  1
 134  1.5158558e+03 0.00e+00 7.87e-01  -3.8 1.74e+01    -  1.00e+00 5.00e-01f  2
 135  1.4290643e+03 0.00e+00 4.90e-01  -3.8 7.82e+00    -  1.00e+00 1.00e+00f  1
 136  1.3765887e+03 0.00e+00 1.21e+00  -3.8 1.21e+01    -  1.00e+00 1.00e+00f  1
 137  1.2746349e+03 0.00e+00 1.91e-01  -3.8 4.95e+00    -  1.00e+00 1.00e+00f  1
 138  1.2287816e+03 0.00e+00 5.53e-01  -3.8 2.79e+01    -  1.00e+00 2.50e-01f  3
 139  1.1665371e+03 0.00e+00 8.79e-01  -3.8 1.02e+01    -  1.00e+00 1.00e+00f  1
iter    objective    inf_pr   inf_du lg(mu)  ||d||  lg(rg) alpha_du alpha_pr  ls
 140  1.0913252e+03 0.00e+00 3.37e-01  -3.8 6.38e+00    -  1.00e+00 1.00e+00f  1
 141  1.0474755e+03 0.00e+00 6.94e-01  -3.8 1.56e+01    -  1.00e+00 5.00e-01f  2
 142  9.8316686e+02 0.00e+00 5.07e-01  -3.8 7.71e+00    -  1.00e+00 1.00e+00f  1
 143  9.3321394e+02 0.00e+00 9.05e-01  -3.8 1.02e+01    -  1.00e+00 1.00e+00f  1
 144  8.6769708e+02 0.00e+00 2.75e-01  -3.8 5.68e+00    -  1.00e+00 1.00e+00f  1
 145  8.3206894e+02 0.00e+00 8.02e-01  -3.8 1.72e+01    -  1.00e+00 5.00e-01f  2
 146  7.7464267e+02 0.00e+00 3.24e-01  -3.8 6.10e+00    -  1.00e+00 1.00e+00f  1
 147  7.4110380e+02 0.00e+00 6.11e-01  -3.8 1.41e+01    -  1.00e+00 5.00e-01f  2
 148  6.9288967e+02 0.00e+00 5.13e-01  -3.8 7.56e+00    -  1.00e+00 1.00e+00f  1
 149  6.5090773e+02 0.00e+00 6.88e-01  -3.8 8.69e+00    -  1.00e+00 1.00e+00f  1
iter    objective    inf_pr   inf_du lg(mu)  ||d||  lg(rg) alpha_du alpha_pr  ls
 150  6.0523047e+02 0.00e+00 3.66e-01  -3.8 6.36e+00    -  1.00e+00 1.00e+00f  1
 151  5.8807833e+02 0.00e+00 1.19e+00  -3.8 1.13e+01    -  1.00e+00 1.00e+00f  1
 152  5.2587419e+02 0.00e+00 1.06e-01  -3.8 3.51e+00    -  1.00e+00 1.00e+00f  1
 153  5.0189749e+02 0.00e+00 6.74e-01  -3.8 3.16e+01    -  1.00e+00 2.50e-01f  3
 154  4.6445927e+02 0.00e+00 3.06e-01  -3.8 5.74e+00    -  1.00e+00 1.00e+00f  1
 155  4.6329687e+02 0.00e+00 1.33e+00  -3.8 1.17e+01    -  1.00e+00 1.00e+00f  1
 156  3.9951828e+02 0.00e+00 6.55e-02  -3.8 2.77e+00    -  1.00e+00 1.00e+00f  1
 157  3.9023806e+02 0.00e+00 1.02e+00  -3.8 3.98e+01    -  1.00e+00 2.50e-01f  3
 158  3.4793892e+02 0.00e+00 9.88e-02  -3.8 3.29e+00    -  1.00e+00 1.00e+00f  1
 159  3.3092238e+02 0.00e+00 5.24e-01  -3.8 2.69e+01    -  1.00e+00 2.50e-01f  3
iter    objective    inf_pr   inf_du lg(mu)  ||d||  lg(rg) alpha_du alpha_pr  ls
 160  3.0609812e+02 0.00e+00 3.35e-01  -3.8 5.85e+00    -  1.00e+00 1.00e+00f  1
 161  2.8966774e+02 0.00e+00 7.34e-01  -3.8 8.56e+00    -  1.00e+00 1.00e+00f  1
 162  2.6371155e+02 0.00e+00 1.43e-01  -3.8 3.85e+00    -  1.00e+00 1.00e+00f  1
 163  2.5483995e+02 0.00e+00 7.83e-01  -3.8 1.67e+01    -  1.00e+00 5.00e-01f  2
 164  2.2987535e+02 0.00e+00 1.06e-01  -3.8 3.30e+00    -  1.00e+00 1.00e+00f  1
 165  2.1929567e+02 0.00e+00 3.25e-01  -3.8 1.96e+01    -  1.00e+00 2.50e-01f  3
 166  2.0551079e+02 0.00e+00 5.06e-01  -3.8 7.02e+00    -  1.00e+00 1.00e+00f  1
 167  1.8971698e+02 0.00e+00 1.92e-01  -3.8 4.35e+00    -  1.00e+00 1.00e+00f  1
 168  1.8080217e+02 0.00e+00 3.63e-01  -3.8 1.01e+01    -  1.00e+00 5.00e-01f  2
 169  1.6851351e+02 0.00e+00 3.01e-01  -3.8 5.39e+00    -  1.00e+00 1.00e+00f  1
iter    objective    inf_pr   inf_du lg(mu)  ||d||  lg(rg) alpha_du alpha_pr  ls
 170  1.5813434e+02 0.00e+00 3.81e-01  -3.8 6.03e+00    -  1.00e+00 1.00e+00f  1
 171  1.4761160e+02 0.00e+00 2.12e-01  -3.8 4.50e+00    -  1.00e+00 1.00e+00f  1
 172  1.4199096e+02 0.00e+00 5.60e-01  -3.8 7.24e+00    -  1.00e+00 1.00e+00f  1
 173  1.3072625e+02 0.00e+00 7.30e-02  -3.8 2.67e+00    -  1.00e+00 1.00e+00f  1
 174  1.2975023e+02 0.00e+00 6.45e-01  -3.8 1.50e+01    -  1.00e+00 5.00e-01f  2
 175  1.1780672e+02 0.00e+00 3.93e-02  -3.8 1.98e+00    -  1.00e+00 1.00e+00f  1
 176  1.1391512e+02 0.00e+00 2.79e-01  -3.8 1.91e+01    -  1.00e+00 2.50e-01f  3
 177  1.0870052e+02 0.00e+00 1.50e-01  -3.8 3.74e+00    -  1.00e+00 1.00e+00f  1
 178  1.0586757e+02 0.00e+00 3.83e-01  -3.8 5.91e+00    -  1.00e+00 1.00e+00f  1
 179  1.0086680e+02 0.00e+00 5.17e-02  -3.8 2.21e+00    -  1.00e+00 1.00e+00f  1
iter    objective    inf_pr   inf_du lg(mu)  ||d||  lg(rg) alpha_du alpha_pr  ls
 180  9.9415831e+01 0.00e+00 3.45e-01  -3.8 1.07e+01    -  1.00e+00 5.00e-01f  2
 181  9.5647638e+01 0.00e+00 3.88e-02  -3.8 1.91e+00    -  1.00e+00 1.00e+00f  1
 182  9.4706318e+01 0.00e+00 2.98e-01  -3.8 9.98e+00    -  1.00e+00 5.00e-01f  2
 183  9.2070304e+01 0.00e+00 2.86e-02  -3.8 1.63e+00    -  1.00e+00 1.00e+00f  1
 184  9.1392818e+01 0.00e+00 2.27e-01  -3.8 8.70e+00    -  1.00e+00 5.00e-01f  2
 185  8.9849737e+01 0.00e+00 2.31e-02  -3.8 1.46e+00    -  1.00e+00 1.00e+00f  1
 186  8.9330886e+01 0.00e+00 1.34e-01  -3.8 6.58e+00    -  1.00e+00 5.00e-01f  2
 187  8.8662012e+01 0.00e+00 2.53e-02  -3.8 1.51e+00    -  1.00e+00 1.00e+00f  1
 188  8.8395106e+01 0.00e+00 5.47e-02  -3.8 3.86e+00    -  1.00e+00 5.00e-01f  2
 189  8.8149597e+01 0.00e+00 3.82e-02  -3.8 1.84e+00    -  1.00e+00 1.00e+00f  1
iter    objective    inf_pr   inf_du lg(mu)  ||d||  lg(rg) alpha_du alpha_pr  ls
 190  8.8020423e+01 0.00e+00 2.71e-02  -3.8 1.55e+00    -  1.00e+00 1.00e+00f  1
 191  8.7964485e+01 0.00e+00 1.35e-02  -3.8 1.09e+00    -  1.00e+00 1.00e+00f  1
 192  8.7948247e+01 0.00e+00 6.04e-03  -3.8 7.30e-01    -  1.00e+00 1.00e+00f  1
 193  8.7945931e+01 0.00e+00 1.01e-03  -3.8 2.98e-01    -  1.00e+00 1.00e+00f  1
 194  8.7945855e+01 0.00e+00 4.64e-05  -5.7 6.40e-02    -  1.00e+00 1.00e+00f  1
 195  8.7945855e+01 0.00e+00 6.36e-08  -5.7 2.37e-03    -  1.00e+00 1.00e+00f  1
 196  8.7945855e+01 0.00e+00 6.17e-08  -8.6 4.06e-06    -  1.00e+00 3.12e-02f  6
 197  8.7945855e+01 0.00e+00 6.17e-08  -8.6 3.93e-06    -  1.00e+00 1.49e-08f 27
 198  8.7945855e+01 0.00e+00 6.17e-08  -8.6 3.93e-06    -  1.00e+00 1.49e-08f 27
 199  8.7945855e+01 0.00e+00 6.17e-08  -8.6 3.93e-06    -  1.00e+00 1.49e-08f 27
iter    objective    inf_pr   inf_du lg(mu)  ||d||  lg(rg) alpha_du alpha_pr  ls
 200  8.7945855e+01 0.00e+00 6.17e-08  -8.6 3.93e-06    -  1.00e+00 1.49e-08f 27
 201  8.7945855e+01 0.00e+00 6.17e-08  -8.6 3.93e-06    -  1.00e+00 1.49e-08f 27
 202  8.7945855e+01 0.00e+00 6.17e-08  -8.6 3.93e-06    -  1.00e+00 1.49e-08f 27
 203  8.7945855e+01 0.00e+00 6.17e-08  -8.6 3.93e-06    -  1.00e+00 1.49e-08f 27
 204  8.7945855e+01 0.00e+00 6.17e-08  -8.6 3.93e-06    -  1.00e+00 1.49e-08f 27
 205  8.7945855e+01 0.00e+00 6.17e-08  -8.6 3.93e-06    -  1.00e+00 1.49e-08f 27
 206  8.7945855e+01 0.00e+00 2.77e-13  -8.6 3.93e-06    -  1.00e+00 1.00e+00w  1

Number of Iterations....: 206

                                   (scaled)                 (unscaled)
Objective...............:   8.7945855170918024e-07    8.7945855170918023e+01
Dual infeasibility......:   2.7723377570509910e-13    2.7723377570509911e-05
Constraint violation....:   0.0000000000000000e+00    0.0000000000000000e+00
Variable bound violation:   0.0000000000000000e+00    0.0000000000000000e+00
Complementarity.........:   0.0000000000000000e+00    0.0000000000000000e+00
Overall NLP error.......:   2.7723377570509910e-13    2.7723377570509911e-05


Number of objective function evaluations             = 813
Number of objective gradient evaluations             = 207
Number of equality constraint evaluations            = 0
Number of inequality constraint evaluations          = 0
Number of equality constraint Jacobian evaluations   = 0
Number of inequality constraint Jacobian evaluations = 0
Number of Lagrangian Hessian evaluations             = 206
Total seconds in IPOPT                               = 0.125

EXIT: Optimal Solution Found.
 
Ipopt 3.14.11: Optimal Solution Found
